p cnf 386 460
-16 -2 5 21 22 0
-16 -2 5 21 -22 0
-16 -2 5 -21 23 0
-16 -2 5 -21 -23 0
-16 -15 17 24 25 0
-16 -15 17 24 -25 0
-16 -15 17 -24 26 0
-16 -15 17 -24 -26 0
-16 -14 -7 27 28 0
-16 -14 -7 27 -28 0
-16 -14 -7 -27 29 0
-16 -14 -7 -27 -29 0
14 2 4 30 31 0
14 2 4 30 -31 0
14 2 4 -30 32 0
14 2 4 -30 -32 0
-10 -16 20 33 34 0
-10 -16 20 33 -34 0
-10 -16 20 -33 35 0
-10 -16 20 -33 -35 0
-12 -16 -8 36 37 0
-12 -16 -8 36 -37 0
-12 -16 -8 -36 38 0
-12 -16 -8 -36 -38 0
7 -8 13 39 40 0
7 -8 13 39 -40 0
7 -8 13 -39 41 0
7 -8 13 -39 -41 0
-5 16 3 42 43 0
-5 16 3 42 -43 0
-5 16 3 -42 44 0
-5 16 3 -42 -44 0
5 20 4 45 46 0
5 20 4 45 -46 0
5 20 4 -45 47 0
5 20 4 -45 -47 0
-11 -15 -5 48 49 0
-11 -15 -5 48 -49 0
-11 -15 -5 -48 50 0
-11 -15 -5 -48 -50 0
-14 3 -1 51 52 0
-14 3 -1 51 -52 0
-14 3 -1 -51 53 0
-14 3 -1 -51 -53 0
1 -15 -11 54 55 0
1 -15 -11 54 -55 0
1 -15 -11 -54 56 0
1 -15 -11 -54 -56 0
-9 -10 2 57 58 0
-9 -10 2 57 -58 0
-9 -10 2 -57 59 0
-9 -10 2 -57 -59 0
-5 -16 -8 60 61 0
-5 -16 -8 60 -61 0
-5 -16 -8 -60 62 0
-5 -16 -8 -60 -62 0
-4 14 -2 63 64 0
-4 14 -2 63 -64 0
-4 14 -2 -63 65 0
-4 14 -2 -63 -65 0
-7 13 20 66 67 0
-7 13 20 66 -67 0
-7 13 20 -66 68 0
-7 13 20 -66 -68 0
-15 -5 -10 69 70 0
-15 -5 -10 69 -70 0
-15 -5 -10 -69 71 0
-15 -5 -10 -69 -71 0
-16 -13 15 72 73 0
-16 -13 15 72 -73 0
-16 -13 15 -72 74 0
-16 -13 15 -72 -74 0
-7 10 3 75 76 0
-7 10 3 75 -76 0
-7 10 3 -75 77 0
-7 10 3 -75 -77 0
-7 -8 -4 78 79 0
-7 -8 -4 78 -79 0
-7 -8 -4 -78 80 0
-7 -8 -4 -78 -80 0
20 -14 -17 81 82 0
20 -14 -17 81 -82 0
20 -14 -17 -81 83 0
20 -14 -17 -81 -83 0
-19 -18 -1 84 85 0
-19 -18 -1 84 -85 0
-19 -18 -1 -84 86 0
-19 -18 -1 -84 -86 0
8 4 14 87 88 0
8 4 14 87 -88 0
8 4 14 -87 89 0
8 4 14 -87 -89 0
14 -11 17 90 91 0
14 -11 17 90 -91 0
14 -11 17 -90 92 0
14 -11 17 -90 -92 0
10 -4 5 93 94 0
10 -4 5 93 -94 0
10 -4 5 -93 95 0
10 -4 5 -93 -95 0
3 11 18 96 97 0
3 11 18 96 -97 0
3 11 18 -96 98 0
3 11 18 -96 -98 0
-5 -1 10 99 100 0
-5 -1 10 99 -100 0
-5 -1 10 -99 101 0
-5 -1 10 -99 -101 0
-5 -15 3 102 103 0
-5 -15 3 102 -103 0
-5 -15 3 -102 104 0
-5 -15 3 -102 -104 0
6 -19 2 105 106 0
6 -19 2 105 -106 0
6 -19 2 -105 107 0
6 -19 2 -105 -107 0
-19 7 2 108 109 0
-19 7 2 108 -109 0
-19 7 2 -108 110 0
-19 7 2 -108 -110 0
-7 -6 -11 111 112 0
-7 -6 -11 111 -112 0
-7 -6 -11 -111 113 0
-7 -6 -11 -111 -113 0
11 -5 -12 114 115 0
11 -5 -12 114 -115 0
11 -5 -12 -114 116 0
11 -5 -12 -114 -116 0
-17 16 -8 117 118 0
-17 16 -8 117 -118 0
-17 16 -8 -117 119 0
-17 16 -8 -117 -119 0
17 -1 -14 120 121 0
17 -1 -14 120 -121 0
17 -1 -14 -120 122 0
17 -1 -14 -120 -122 0
5 -15 -4 123 124 0
5 -15 -4 123 -124 0
5 -15 -4 -123 125 0
5 -15 -4 -123 -125 0
11 -17 -1 126 127 0
11 -17 -1 126 -127 0
11 -17 -1 -126 128 0
11 -17 -1 -126 -128 0
-18 16 8 129 130 0
-18 16 8 129 -130 0
-18 16 8 -129 131 0
-18 16 8 -129 -131 0
17 6 11 132 133 0
17 6 11 132 -133 0
17 6 11 -132 134 0
17 6 11 -132 -134 0
5 7 -17 135 136 0
5 7 -17 135 -136 0
5 7 -17 -135 137 0
5 7 -17 -135 -137 0
-14 17 16 138 139 0
-14 17 16 138 -139 0
-14 17 16 -138 140 0
-14 17 16 -138 -140 0
-10 -4 11 141 142 0
-10 -4 11 141 -142 0
-10 -4 11 -141 143 0
-10 -4 11 -141 -143 0
9 11 -13 144 145 0
9 11 -13 144 -145 0
9 11 -13 -144 146 0
9 11 -13 -144 -146 0
-5 -6 7 147 148 0
-5 -6 7 147 -148 0
-5 -6 7 -147 149 0
-5 -6 7 -147 -149 0
16 -19 -6 150 151 0
16 -19 -6 150 -151 0
16 -19 -6 -150 152 0
16 -19 -6 -150 -152 0
-20 17 14 153 154 0
-20 17 14 153 -154 0
-20 17 14 -153 155 0
-20 17 14 -153 -155 0
-9 -6 -4 156 157 0
-9 -6 -4 156 -157 0
-9 -6 -4 -156 158 0
-9 -6 -4 -156 -158 0
-4 -5 10 159 160 0
-4 -5 10 159 -160 0
-4 -5 10 -159 161 0
-4 -5 10 -159 -161 0
-13 17 15 162 163 0
-13 17 15 162 -163 0
-13 17 15 -162 164 0
-13 17 15 -162 -164 0
8 5 -13 165 166 0
8 5 -13 165 -166 0
8 5 -13 -165 167 0
8 5 -13 -165 -167 0
9 1 5 168 169 0
9 1 5 168 -169 0
9 1 5 -168 170 0
9 1 5 -168 -170 0
-16 9 10 171 172 0
-16 9 10 171 -172 0
-16 9 10 -171 173 0
-16 9 10 -171 -173 0
18 10 15 174 175 0
18 10 15 174 -175 0
18 10 15 -174 176 0
18 10 15 -174 -176 0
19 1 -6 177 178 0
19 1 -6 177 -178 0
19 1 -6 -177 179 0
19 1 -6 -177 -179 0
-12 -6 -2 180 181 0
-12 -6 -2 180 -181 0
-12 -6 -2 -180 182 0
-12 -6 -2 -180 -182 0
-16 2 -19 183 184 0
-16 2 -19 183 -184 0
-16 2 -19 -183 185 0
-16 2 -19 -183 -185 0
-7 16 8 186 187 0
-7 16 8 186 -187 0
-7 16 8 -186 188 0
-7 16 8 -186 -188 0
1 3 7 189 190 0
1 3 7 189 -190 0
1 3 7 -189 191 0
1 3 7 -189 -191 0
14 -9 15 192 193 0
14 -9 15 192 -193 0
14 -9 15 -192 194 0
14 -9 15 -192 -194 0
14 -2 -1 195 196 0
14 -2 -1 195 -196 0
14 -2 -1 -195 197 0
14 -2 -1 -195 -197 0
-12 11 15 198 199 0
-12 11 15 198 -199 0
-12 11 15 -198 200 0
-12 11 15 -198 -200 0
-14 -13 -17 201 202 0
-14 -13 -17 201 -202 0
-14 -13 -17 -201 203 0
-14 -13 -17 -201 -203 0
19 -16 -4 204 205 0
19 -16 -4 204 -205 0
19 -16 -4 -204 206 0
19 -16 -4 -204 -206 0
1 -6 8 207 208 0
1 -6 8 207 -208 0
1 -6 8 -207 209 0
1 -6 8 -207 -209 0
-7 13 12 210 211 0
-7 13 12 210 -211 0
-7 13 12 -210 212 0
-7 13 12 -210 -212 0
-9 4 -20 213 214 0
-9 4 -20 213 -214 0
-9 4 -20 -213 215 0
-9 4 -20 -213 -215 0
6 17 9 216 217 0
6 17 9 216 -217 0
6 17 9 -216 218 0
6 17 9 -216 -218 0
2 5 10 219 220 0
2 5 10 219 -220 0
2 5 10 -219 221 0
2 5 10 -219 -221 0
-9 -7 -17 222 223 0
-9 -7 -17 222 -223 0
-9 -7 -17 -222 224 0
-9 -7 -17 -222 -224 0
-19 -11 -9 225 226 0
-19 -11 -9 225 -226 0
-19 -11 -9 -225 227 0
-19 -11 -9 -225 -227 0
-6 3 11 228 229 0
-6 3 11 228 -229 0
-6 3 11 -228 230 0
-6 3 11 -228 -230 0
-4 -12 7 231 232 0
-4 -12 7 231 -232 0
-4 -12 7 -231 233 0
-4 -12 7 -231 -233 0
-18 7 17 234 235 0
-18 7 17 234 -235 0
-18 7 17 -234 236 0
-18 7 17 -234 -236 0
-6 -14 3 237 238 0
-6 -14 3 237 -238 0
-6 -14 3 -237 239 0
-6 -14 3 -237 -239 0
-16 2 10 240 241 0
-16 2 10 240 -241 0
-16 2 10 -240 242 0
-16 2 10 -240 -242 0
-18 -5 -11 243 244 0
-18 -5 -11 243 -244 0
-18 -5 -11 -243 245 0
-18 -5 -11 -243 -245 0
20 16 6 246 247 0
20 16 6 246 -247 0
20 16 6 -246 248 0
20 16 6 -246 -248 0
-15 6 -10 249 250 0
-15 6 -10 249 -250 0
-15 6 -10 -249 251 0
-15 6 -10 -249 -251 0
17 10 -20 252 253 0
17 10 -20 252 -253 0
17 10 -20 -252 254 0
17 10 -20 -252 -254 0
-2 4 9 255 256 0
-2 4 9 255 -256 0
-2 4 9 -255 257 0
-2 4 9 -255 -257 0
12 10 -19 258 259 0
12 10 -19 258 -259 0
12 10 -19 -258 260 0
12 10 -19 -258 -260 0
-7 17 18 261 262 0
-7 17 18 261 -262 0
-7 17 18 -261 263 0
-7 17 18 -261 -263 0
-8 -10 11 264 265 0
-8 -10 11 264 -265 0
-8 -10 11 -264 266 0
-8 -10 11 -264 -266 0
-16 3 -17 267 268 0
-16 3 -17 267 -268 0
-16 3 -17 -267 269 0
-16 3 -17 -267 -269 0
15 12 2 270 271 0
15 12 2 270 -271 0
15 12 2 -270 272 0
15 12 2 -270 -272 0
-12 17 -16 273 274 0
-12 17 -16 273 -274 0
-12 17 -16 -273 275 0
-12 17 -16 -273 -275 0
3 12 -13 276 277 0
3 12 -13 276 -277 0
3 12 -13 -276 278 0
3 12 -13 -276 -278 0
-2 -13 -6 279 280 0
-2 -13 -6 279 -280 0
-2 -13 -6 -279 281 0
-2 -13 -6 -279 -281 0
-19 8 -2 282 283 0
-19 8 -2 282 -283 0
-19 8 -2 -282 284 0
-19 8 -2 -282 -284 0
-14 -17 3 285 286 0
-14 -17 3 285 -286 0
-14 -17 3 -285 287 0
-14 -17 3 -285 -287 0
-1 11 6 288 289 0
-1 11 6 288 -289 0
-1 11 6 -288 290 0
-1 11 6 -288 -290 0
14 3 1 291 292 0
14 3 1 291 -292 0
14 3 1 -291 293 0
14 3 1 -291 -293 0
294 295 297 301 309 0
294 295 297 301 -309 0
294 295 297 -301 310 0
294 295 297 -301 -310 0
294 295 -297 302 311 0
294 295 -297 302 -311 0
294 295 -297 -302 312 0
294 295 -297 -302 -312 0
294 -295 298 303 313 0
294 -295 298 303 -313 0
294 -295 298 -303 314 0
294 -295 298 -303 -314 0
294 -295 -298 304 315 0
294 -295 -298 304 -315 0
294 -295 -298 -304 316 0
294 -295 -298 -304 -316 0
-294 296 299 305 317 0
-294 296 299 305 -317 0
-294 296 299 -305 318 0
-294 296 299 -305 -318 0
-294 296 -299 306 319 0
-294 296 -299 306 -319 0
-294 296 -299 -306 320 0
-294 296 -299 -306 -320 0
-294 -296 300 307 321 0
-294 -296 300 307 -321 0
-294 -296 300 -307 322 0
-294 -296 300 -307 -322 0
-294 -296 -300 308 323 0
-294 -296 -300 308 -323 0
-294 -296 -300 -308 324 0
-294 -296 -300 -308 -324 0
325 326 328 332 340 0
325 326 328 332 -340 0
325 326 328 -332 341 0
325 326 328 -332 -341 0
325 326 -328 333 342 0
325 326 -328 333 -342 0
325 326 -328 -333 343 0
325 326 -328 -333 -343 0
325 -326 329 334 344 0
325 -326 329 334 -344 0
325 -326 329 -334 345 0
325 -326 329 -334 -345 0
325 -326 -329 335 346 0
325 -326 -329 335 -346 0
325 -326 -329 -335 347 0
325 -326 -329 -335 -347 0
-325 327 330 336 348 0
-325 327 330 336 -348 0
-325 327 330 -336 349 0
-325 327 330 -336 -349 0
-325 327 -330 337 350 0
-325 327 -330 337 -350 0
-325 327 -330 -337 351 0
-325 327 -330 -337 -351 0
-325 -327 331 338 352 0
-325 -327 331 338 -352 0
-325 -327 331 -338 353 0
-325 -327 331 -338 -353 0
-325 -327 -331 339 354 0
-325 -327 -331 339 -354 0
-325 -327 -331 -339 355 0
-325 -327 -331 -339 -355 0
356 357 359 363 371 0
356 357 359 363 -371 0
356 357 359 -363 372 0
356 357 359 -363 -372 0
356 357 -359 364 373 0
356 357 -359 364 -373 0
356 357 -359 -364 374 0
356 357 -359 -364 -374 0
356 -357 360 365 375 0
356 -357 360 365 -375 0
356 -357 360 -365 376 0
356 -357 360 -365 -376 0
356 -357 -360 366 377 0
356 -357 -360 366 -377 0
356 -357 -360 -366 378 0
356 -357 -360 -366 -378 0
-356 358 361 367 379 0
-356 358 361 367 -379 0
-356 358 361 -367 380 0
-356 358 361 -367 -380 0
-356 358 -361 368 381 0
-356 358 -361 368 -381 0
-356 358 -361 -368 382 0
-356 358 -361 -368 -382 0
-356 -358 362 369 383 0
-356 -358 362 369 -383 0
-356 -358 362 -369 384 0
-356 -358 362 -369 -384 0
-356 -358 -362 370 385 0
-356 -358 -362 370 -385 0
-356 -358 -362 -370 386 0
-356 -358 -362 -370 -386 0

